168
0 119 166 19 91 7 141 94 45 18 
86 99 42 15 112 11 81 34 77 160 
146 69 16 23 30 60 71 149 35 111 
103 57 150 127 79 67 128 155 14 73 
136 135 13 66 125 140 156 97 12 107 
51 87 38 152 56 115 59 126 110 121 
142 9 26 53 3 32 105 75 39 96 
157 98 123 46 167 138 82 130 63 89 
2 24 151 148 92 80 85 61 8 4 
106 55 131 5 153 120 147 117 31 101 
62 37 144 44 48 161 6 20 28 109 
122 21 163 124 95 145 22 113 78 164 
70 40 65 54 29 93 129 41 68 76 
49 58 50 165 27 84 137 158 47 154 
52 118 139 132 88 25 64 162 143 43 
33 17 36 134 108 116 100 114 159 1 
90 10 83 72 102 74 104 133 
